p wcnf 105 158 159 
1 49 -6 0 
1 18 103 0 
1 -101 72 0 
1 5 77 0 
1 -23 71 0 
1 -68 -70 0 
1 -6 69 0 
1 81 -70 0 
1 9 -11 0 
1 51 -19 0 
1 -28 -15 0 
1 74 56 0 
1 53 71 0 
1 43 99 0 
1 -100 -52 0 
1 29 -59 0 
1 -20 -78 0 
1 -81 -70 0 
1 -101 36 0 
1 60 -52 0 
1 -93 94 0 
1 24 -68 0 
1 86 -59 0 
1 -27 -35 0 
1 39 -15 0 
1 -4 1 0 
1 104 -90 0 
1 -51 83 0 
1 -103 54 0 
1 70 43 0 
1 -18 4 0 
1 75 53 0 
1 -49 -5 0 
1 99 18 0 
1 -96 43 0 
1 -90 57 0 
1 15 98 0 
1 67 -105 0 
1 68 41 0 
1 -22 34 0 
1 -30 -41 0 
1 65 29 0 
1 -46 68 0 
1 48 -39 0 
1 -63 47 0 
1 94 101 0 
1 -89 61 0 
1 -19 82 0 
1 78 9 0 
1 91 50 0 
1 25 -76 0 
1 47 99 0 
1 26 90 0 
1 105 83 0 
1 -100 43 0 
1 83 97 0 
1 -75 72 0 
1 -30 9 0 
1 -54 87 0 
1 41 -54 0 
1 -94 -86 0 
1 -24 -3 0 
1 36 75 0 
1 -55 70 0 
1 -69 16 0 
1 -91 -89 0 
1 46 -25 0 
1 34 -62 0 
1 14 3 0 
1 13 88 0 
1 3 95 0 
1 -30 -78 0 
1 -25 -44 0 
1 79 -55 0 
1 -1 -41 0 
1 -60 41 0 
1 -75 -35 0 
1 44 23 0 
1 102 98 0 
1 -66 41 0 
1 -11 -61 0 
1 34 9 0 
1 -19 -79 0 
1 -45 61 0 
1 -56 -74 0 
1 65 27 0 
1 -32 -24 0 
1 -46 -67 0 
1 -63 -20 0 
1 19 -31 0 
1 -56 30 0 
1 -34 -4 0 
1 -91 -56 0 
1 11 -95 0 
1 -22 -46 0 
1 70 45 0 
1 -5 94 0 
1 80 103 0 
1 -12 -52 0 
1 103 -38 0 
1 41 6 0 
1 25 51 0 
1 -21 98 0 
1 19 2 0 
1 -31 -103 0 
1 -91 -30 0 
1 39 57 0 
1 -59 -29 0 
1 -51 -71 0 
1 -32 82 0 
1 -48 41 0 
1 -8 40 0 
1 85 -90 0 
1 -6 -29 0 
1 75 92 0 
1 -33 -13 0 
1 -11 -4 0 
1 18 -20 0 
1 -71 94 0 
1 18 -70 0 
1 78 -44 0 
1 69 -52 0 
1 -12 45 0 
1 -50 11 0 
1 -100 -68 0 
1 -59 81 0 
1 76 -1 0 
1 21 29 0 
1 -89 72 0 
1 -90 -36 0 
1 -51 26 0 
1 -45 -14 0 
1 7 -16 0 
1 58 10 0 
1 59 -50 0 
1 89 -18 0 
1 72 -11 0 
1 -67 49 0 
1 67 -28 0 
1 98 19 0 
1 92 -90 0 
1 82 13 0 
1 101 -63 0 
1 10 -54 0 
1 100 -32 0 
1 -6 -40 0 
1 -26 -38 0 
1 -11 -5 0 
1 54 -35 0 
1 19 -92 0 
1 68 -29 0 
1 -50 32 0 
1 -1 95 0 
1 -50 13 0 
1 23 -44 0 
1 36 53 0 
1 -102 -61 0 
1 -62 -95 0 
